c generated by sgen
p cnf 57 124
-2 -3 -4 0
-1 -3 -4 0
-1 -2 -4 0
-1 -2 -3 0
-6 -7 -8 0
-5 -7 -8 0
-5 -6 -8 0
-5 -6 -7 0
-10 -11 -12 0
-9 -11 -12 0
-9 -10 -12 0
-9 -10 -11 0
-14 -15 -16 0
-13 -15 -16 0
-13 -14 -16 0
-13 -14 -15 0
-18 -19 -20 0
-17 -19 -20 0
-17 -18 -20 0
-17 -18 -19 0
-22 -23 -24 0
-21 -23 -24 0
-21 -22 -24 0
-21 -22 -23 0
-26 -27 -28 0
-25 -27 -28 0
-25 -26 -28 0
-25 -26 -27 0
-30 -31 -32 0
-29 -31 -32 0
-29 -30 -32 0
-29 -30 -31 0
-34 -35 -36 0
-33 -35 -36 0
-33 -34 -36 0
-33 -34 -35 0
-38 -39 -40 0
-37 -39 -40 0
-37 -38 -40 0
-37 -38 -39 0
-42 -43 -44 0
-41 -43 -44 0
-41 -42 -44 0
-41 -42 -43 0
-46 -47 -48 0
-45 -47 -48 0
-45 -46 -48 0
-45 -46 -47 0
-50 -51 -52 0
-49 -51 -52 0
-49 -50 -52 0
-49 -50 -51 0
-53 -54 -55 0
-53 -54 -56 0
-53 -54 -57 0
-53 -55 -56 0
-53 -55 -57 0
-53 -56 -57 0
-54 -55 -56 0
-54 -55 -57 0
-54 -56 -57 0
-55 -56 -57 0
43 7 29 0
20 7 29 0
20 43 29 0
20 43 7 0
27 2 57 0
14 2 57 0
14 27 57 0
14 27 2 0
34 19 16 0
37 19 16 0
37 34 16 0
37 34 19 0
46 35 1 0
31 35 1 0
31 46 1 0
31 46 35 0
11 36 52 0
42 36 52 0
42 11 52 0
42 11 36 0
28 38 6 0
10 38 6 0
10 28 6 0
10 28 38 0
13 30 9 0
24 30 9 0
24 13 9 0
24 13 30 0
15 48 50 0
5 48 50 0
5 15 50 0
5 15 48 0
44 40 22 0
45 40 22 0
45 44 22 0
45 44 40 0
32 55 39 0
51 55 39 0
51 32 39 0
51 32 55 0
3 54 12 0
18 54 12 0
18 3 12 0
18 3 54 0
47 41 53 0
25 41 53 0
25 47 53 0
25 47 41 0
8 23 56 0
33 23 56 0
33 8 56 0
33 8 23 0
21 49 26 0
21 49 17 0
21 49 4 0
21 26 17 0
21 26 4 0
21 17 4 0
49 26 17 0
49 26 4 0
49 17 4 0
26 17 4 0
